p cnf 117 131
-1 107 -108 -109 -111 -117 0 
-2 6 7 8 78 79 108 -107 -109 -111 -117 0 
-3 12 109 -107 -108 -111 -117 0 
-4 48 85 95 98 108 -107 -109 -111 -117 0 
-5 13 30 49 66 68 87 104 108 -107 -109 -111 -117 0 
-6 2 7 8 78 79 108 -107 -109 -111 -117 0 
-7 2 6 8 78 79 108 -107 -109 -111 -117 0 
-8 2 6 7 78 79 108 -107 -109 -111 -117 0 
-9 108 -107 -109 -111 -117 0 
-10 88 -11 24 27 54 75 83 90 -12 3 109 -107 -108 -111 -117 0 
-13 5 30 49 66 68 87 104 108 -107 -109 -111 -117 0 
-14 57 -15 107 -108 -109 -111 -117 0 
-14 57 -16 107 -108 -109 -111 -117 0 
-17 109 -107 -108 -111 -117 0 
-18 32 38 39 69 72 89 -8 2 6 7 78 79 108 -107 -109 -111 -117 0 
-19 108 -107 -109 -111 -117 0 
-20 108 -107 -109 -111 -117 0 
-21 25 47 91 -22 108 -107 -109 -111 -117 0 
-23 73 -24 11 27 54 75 83 90 108 -107 -109 -111 -117 0 
-16 110 -107 -108 -109 -111 -117 0 
-24 11 27 54 75 83 90 -25 21 47 91 108 -107 -109 -111 -117 0 
-26 35 40 46 81 111 -107 -108 -109 -117 0 
-15 -27 11 24 54 75 83 90 108 -107 -109 -111 -117 0 
-28 36 41 92 -29 31 34 56 86 108 -107 -109 -111 -117 0 
-30 5 13 49 66 68 87 104 108 -107 -109 -111 -117 0 
-31 29 34 56 86 108 -107 -109 -111 -117 0 
-15 110 -107 -108 -109 -111 -117 0 
-32 18 38 39 69 72 89 111 -107 -108 -109 -117 0 
-33 -34 29 31 56 86 108 -107 -109 -111 -117 0 
-35 26 40 46 81 108 -107 -109 -111 -117 0 
-36 28 41 92 108 -107 -109 -111 -117 0 
-37 43 64 67 84 112 -107 -108 -109 -111 -117 -28 -36 -41 -92 0 
-37 43 64 67 84 113 -100 -107 -108 -109 -111 -117 0 
-38 18 32 39 69 72 89 114 -107 -108 -109 -111 -117 0 
-39 18 32 38 69 72 89 108 -107 -109 -111 -117 0 
-40 26 35 46 81 115 -107 -108 -109 -111 -117 -3 -12 0 
-38 18 32 39 69 72 89 116 -107 -108 -109 -111 -117 -14 -57 0 
-14 57 107 -108 -109 -111 -117 0 
-41 28 36 92 107 -108 -109 -111 -117 0 
-42 53 107 -108 -109 -111 -117 0 
-43 37 64 67 84 108 -107 -109 -111 -117 0 
-44 45 63 103 107 -108 -109 -111 -117 0 
-45 44 63 103 111 -107 -108 -109 -117 0 
-46 26 35 40 81 -22 108 -107 -109 -111 -117 0 
-28 36 41 92 -22 108 -107 -109 -111 -117 0 
-45 44 63 103 -25 21 47 91 108 -107 -109 -111 -117 0 
-15 -45 44 63 103 108 -107 -109 -111 -117 0 
-47 21 25 91 111 -107 -108 -109 -117 0 
-48 4 85 95 98 108 -107 -109 -111 -117 0 
-49 5 13 30 66 68 87 104 -50 108 -107 -109 -111 -117 0 
-28 36 41 92 -51 -52 108 -107 -109 -111 -117 0 
-53 42 -54 11 24 27 75 83 90 -55 108 -107 -109 -111 -117 0 
-25 21 47 91 -56 29 31 34 86 -57 14 108 -107 -109 -111 -117 0 
-25 21 47 91 -22 108 -107 -109 -111 -117 0 
-58 60 -1 108 -107 -109 -111 -117 0 
-10 88 -59 -60 58 -61 108 -107 -109 -111 -117 0 
-15 -22 108 -107 -109 -111 -117 0 
-28 36 41 92 108 -107 -109 -111 -117 0 
-62 108 -107 -109 -111 -117 0 
-63 44 45 103 -22 108 -107 -109 -111 -117 0 
-64 37 43 67 84 -63 44 45 103 -22 108 -107 -109 -111 -117 0 
-44 45 63 103 -52 107 -108 -109 -111 -117 0 
-27 11 24 54 75 83 90 -65 71 107 -108 -109 -111 -117 0 
-66 5 13 30 49 68 87 104 -22 108 -107 -109 -111 -117 0 
-67 37 43 64 84 -68 5 13 30 49 66 87 104 -65 71 108 -107 -109 -111 -117 0 
-67 37 43 64 84 -45 44 63 103 -65 71 108 -107 -109 -111 -117 0 
-54 11 24 27 75 83 90 -65 71 108 -107 -109 -111 -117 0 
-67 37 43 64 84 -45 44 63 103 -1 108 -107 -109 -111 -117 0 
-67 37 43 64 84 -68 5 13 30 49 66 87 104 -1 108 -107 -109 -111 -117 0 
-67 37 43 64 84 -69 18 32 38 39 72 89 -1 108 -107 -109 -111 -117 0 
-69 18 32 38 39 72 89 -1 108 -107 -109 -111 -117 0 
-54 11 24 27 75 83 90 -1 108 -107 -109 -111 -117 0 
-70 -71 65 111 -107 -108 -109 -117 0 
-69 18 32 38 39 72 89 108 -107 -109 -111 -117 0 
-45 44 63 103 108 -107 -109 -111 -117 0 
-63 44 45 103 -72 18 32 38 39 69 89 -73 23 -58 60 -1 108 -107 -109 -111 -117 0 
-52 111 -107 -108 -109 -117 0 
-74 -75 11 24 27 54 83 90 -52 109 -107 -108 -111 -117 0 
-57 14 -76 -1 108 -107 -109 -111 -117 0 
-53 42 -54 11 24 27 75 83 90 -50 -52 108 -107 -109 -111 -117 0 
-24 11 27 54 75 83 90 -77 108 -107 -109 -111 -117 0 
-53 42 -30 5 13 49 66 68 87 104 108 -107 -109 -111 -117 0 
-28 36 41 92 -78 2 6 7 8 79 108 -107 -109 -111 -117 0 
-28 36 41 92 -79 2 6 7 8 78 108 -107 -109 -111 -117 0 
-80 111 -107 -108 -109 -117 0 
-24 11 27 54 75 83 90 -65 71 108 -107 -109 -111 -117 0 
-23 73 108 -107 -109 -111 -117 0 
-81 26 35 40 46 108 -107 -109 -111 -117 0 
-63 44 45 103 108 -107 -109 -111 -117 0 
-82 -52 108 -107 -109 -111 -117 0 
-10 88 -59 -58 60 -52 108 -107 -109 -111 -117 0 
-72 18 32 38 39 69 89 -33 -34 29 31 56 86 108 -107 -109 -111 -117 0 
-75 11 24 27 54 83 90 109 -107 -108 -111 -117 0 
-83 11 24 27 54 75 90 109 -107 -108 -111 -117 0 
-49 5 13 30 66 68 87 104 109 -107 -108 -111 -117 0 
-12 3 109 -107 -108 -111 -117 0 
-84 37 43 64 67 107 -108 -109 -111 -117 0 
-85 4 48 95 98 108 -107 -109 -111 -117 0 
-86 29 31 34 56 108 -107 -109 -111 -117 0 
-87 5 13 30 49 66 68 104 108 -107 -109 -111 -117 0 
-24 11 27 54 75 83 90 -76 108 -107 -109 -111 -117 0 
-49 5 13 30 66 68 87 104 -76 108 -107 -109 -111 -117 0 
-88 10 -89 18 32 38 39 69 72 107 -108 -109 -111 -117 0 
-57 14 -30 5 13 49 66 68 87 104 108 -107 -109 -111 -117 0 
-28 36 41 92 -54 11 24 27 75 83 90 108 -107 -109 -111 -117 0 
-53 42 -90 11 24 27 54 75 83 108 -107 -109 -111 -117 0 
-91 21 25 47 109 -107 -108 -111 -117 0 
-28 36 41 92 -69 18 32 38 39 72 89 108 -107 -109 -111 -117 0 
-90 11 24 27 54 75 83 108 -107 -109 -111 -117 0 
-16 -17 109 -107 -108 -111 -117 0 
-92 28 36 41 117 -107 -108 -109 -111 0 
-93 -94 109 -107 -108 -111 -117 0 
-95 4 48 85 98 108 -107 -109 -111 -117 0 
-96 107 -108 -109 -111 -117 0 
-78 2 6 7 8 79 108 -107 -109 -111 -117 0 
-97 108 -107 -109 -111 -117 0 
-98 4 48 85 95 -78 2 6 7 8 79 108 -107 -109 -111 -117 0 
-53 42 -99 108 -107 -109 -111 -117 0 
-100 -5 13 30 49 66 68 87 104 108 -107 -109 -111 -117 0 
-18 32 38 39 69 72 89 110 -107 -108 -109 -111 -117 0 
-72 18 32 38 39 69 89 -64 37 43 67 84 -82 -1 108 -107 -109 -111 -117 0 
-83 11 24 27 54 75 90 -101 109 -107 -108 -111 -117 0 
-12 3 -101 109 -107 -108 -111 -117 0 
-102 108 -107 -109 -111 -117 0 
-103 44 45 63 110 -107 -108 -109 -111 -117 0 
-57 14 -104 5 13 30 49 66 68 87 108 -107 -109 -111 -117 0 
-93 109 -107 -108 -111 -117 0 
-105 -106 108 -107 -109 -111 -117 0 
-57 14 -90 11 24 27 54 75 83 108 -107 -109 -111 -117 0 
-28 36 41 92 -21 25 47 91 108 -107 -109 -111 -117 0 
-28 36 41 92 -76 108 -107 -109 -111 -117 0 
